c A temporal KB for measuring ID
p wcnf 62 46 6
5 1 17 0
5 -1 3 0
5 -1 -4 0
5 -17 3 0
5 -17 4 0
5 2 6 18 0
5 -2 4 0
5 -2 -3 0
5 -18 4 0
5 -18 3 0
5 -6 8 0
5 -6 -7 0
5 -18 8 0
5 -18 7 0
5 5 19 0
5 -5 7 0
5 -5 -8 0
5 -19 7 0
5 -19 8 0
5 6 10 20 0
5 -6 8 0
5 -6 -7 0
5 -20 8 0
5 -20 7 0
5 -10 12 0
5 -10 -11 0
5 -20 12 0
5 -20 11 0
5 9 21 0
5 -9 11 0
5 -9 -12 0
5 -21 11 0
5 -21 12 0
5 13 10 22 0
5 -13 15 0
5 -13 -16 0
5 -22 15 0
5 -22 16 0
5 -10 12 0
5 -10 -11 0
5 -22 12 0
5 -22 11 0
1 -3 -4 0
1 -7 -8 0
1 -11 -12 0
1 -15 -16 0
